LatticeConstant 1.0 Ang
%block LatticeVectors
 33.90000000 0.00000000 0.00000000
 0.00000000 30.60000000 0.00000000
 0.00000000 0.00000000 18.36000000
%endblock LatticeVectors

NumberOfAtoms 144
AtomicCoordinatesFormat Ang
%block AtomicCoordinatesAndAtomicSpecies
  0.00000000  0.00000000  0.00000000 1 #   1: Au
  0.00000000  2.04000000  2.04000000 1 #   2: Au
  2.04000000  0.00000000  2.04000000 1 #   3: Au
  2.04000000  2.04000000  0.00000000 1 #   4: Au
  0.00000000  0.00000000  4.08000000 1 #   5: Au
  0.00000000  2.04000000  6.12000000 1 #   6: Au
  2.04000000  0.00000000  6.12000000 1 #   7: Au
  2.04000000  2.04000000  4.08000000 1 #   8: Au
  0.00000000  4.08000000  0.00000000 1 #   9: Au
  0.00000000  6.12000000  2.04000000 1 #  10: Au
  2.04000000  4.08000000  2.04000000 1 #  11: Au
  2.04000000  6.12000000  0.00000000 1 #  12: Au
  0.00000000  4.08000000  4.08000000 1 #  13: Au
  0.00000000  6.12000000  6.12000000 1 #  14: Au
  2.04000000  4.08000000  6.12000000 1 #  15: Au
  2.04000000  6.12000000  4.08000000 1 #  16: Au
  0.00000000  8.16000000  0.00000000 1 #  17: Au
  0.00000000 10.20000000  2.04000000 1 #  18: Au
  2.04000000  8.16000000  2.04000000 1 #  19: Au
  2.04000000 10.20000000  0.00000000 1 #  20: Au
  0.00000000  8.16000000  4.08000000 1 #  21: Au
  0.00000000 10.20000000  6.12000000 1 #  22: Au
  2.04000000  8.16000000  6.12000000 1 #  23: Au
  2.04000000 10.20000000  4.08000000 1 #  24: Au
  4.08000000  0.00000000  0.00000000 1 #  25: Au
  4.08000000  2.04000000  2.04000000 1 #  26: Au
  6.12000000  0.00000000  2.04000000 1 #  27: Au
  6.12000000  2.04000000  0.00000000 1 #  28: Au
  4.08000000  0.00000000  4.08000000 1 #  29: Au
  4.08000000  2.04000000  6.12000000 1 #  30: Au
  6.12000000  0.00000000  6.12000000 1 #  31: Au
  6.12000000  2.04000000  4.08000000 1 #  32: Au
  4.08000000  4.08000000  0.00000000 1 #  33: Au
  4.08000000  6.12000000  2.04000000 1 #  34: Au
  6.12000000  4.08000000  2.04000000 1 #  35: Au
  6.12000000  6.12000000  0.00000000 1 #  36: Au
  4.08000000  4.08000000  4.08000000 1 #  37: Au
  4.08000000  6.12000000  6.12000000 1 #  38: Au
  6.12000000  4.08000000  6.12000000 1 #  39: Au
  6.12000000  6.12000000  4.08000000 1 #  40: Au
  4.08000000  8.16000000  0.00000000 1 #  41: Au
  4.08000000 10.20000000  2.04000000 1 #  42: Au
  6.12000000  8.16000000  2.04000000 1 #  43: Au
  6.12000000 10.20000000  0.00000000 1 #  44: Au
  4.08000000  8.16000000  4.08000000 1 #  45: Au
  4.08000000 10.20000000  6.12000000 1 #  46: Au
  6.12000000  8.16000000  6.12000000 1 #  47: Au
  6.12000000 10.20000000  4.08000000 1 #  48: Au
  8.12000000  2.04000000  4.08000000 2 #  49: C
  8.83000000  3.26976000  4.08000000 2 #  50: C
 10.25000000  3.26976000  4.08000000 2 #  51: C
 10.96000000  2.04000000  4.08000000 2 #  52: C
 12.38000000  2.04000000  4.08000000 2 #  53: C
 13.09000000  3.26976000  4.08000000 2 #  54: C
 14.51000000  3.26976000  4.08000000 2 #  55: C
 15.22000000  2.04000000  4.08000000 2 #  56: C
 16.64000000  2.04000000  4.08000000 2 #  57: C
 17.35000000  3.26976000  4.08000000 2 #  58: C
 18.77000000  3.26976000  4.08000000 2 #  59: C
 19.48000000  2.04000000  4.08000000 2 #  60: C
 20.90000000  2.04000000  4.08000000 2 #  61: C
 21.61000000  3.26976000  4.08000000 2 #  62: C
 23.03000000  3.26976000  4.08000000 2 #  63: C
 23.74000000  2.04000000  4.08000000 2 #  64: C
  8.12000000  4.49951000  4.08000000 2 #  65: C
  8.83000000  5.72927000  4.08000000 2 #  66: C
 10.25000000  5.72927000  4.08000000 2 #  67: C
 10.96000000  4.49951000  4.08000000 2 #  68: C
 12.38000000  4.49951000  4.08000000 2 #  69: C
 13.09000000  5.72927000  4.08000000 2 #  70: C
 14.51000000  5.72927000  4.08000000 2 #  71: C
 15.22000000  4.49951000  4.08000000 2 #  72: C
 16.64000000  4.49951000  4.08000000 2 #  73: C
 17.35000000  5.72927000  4.08000000 2 #  74: C
 18.77000000  5.72927000  4.08000000 2 #  75: C
 19.48000000  4.49951000  4.08000000 2 #  76: C
 20.90000000  4.49951000  4.08000000 2 #  77: C
 21.61000000  5.72927000  4.08000000 2 #  78: C
 23.03000000  5.72927000  4.08000000 2 #  79: C
 23.74000000  4.49951000  4.08000000 2 #  80: C
  8.12000000  6.95902000  4.08000000 2 #  81: C
  8.83000000  8.18878000  4.08000000 2 #  82: C
 10.25000000  8.18878000  4.08000000 2 #  83: C
 10.96000000  6.95902000  4.08000000 2 #  84: C
 12.38000000  6.95902000  4.08000000 2 #  85: C
 13.09000000  8.18878000  4.08000000 2 #  86: C
 14.51000000  8.18878000  4.08000000 2 #  87: C
 15.22000000  6.95902000  4.08000000 2 #  88: C
 16.64000000  6.95902000  4.08000000 2 #  89: C
 17.35000000  8.18878000  4.08000000 2 #  90: C
 18.77000000  8.18878000  4.08000000 2 #  91: C
 19.48000000  6.95902000  4.08000000 2 #  92: C
 20.90000000  6.95902000  4.08000000 2 #  93: C
 21.61000000  8.18878000  4.08000000 2 #  94: C
 23.03000000  8.18878000  4.08000000 2 #  95: C
 23.74000000  6.95902000  4.08000000 2 #  96: C
 25.74000000  0.00000000  0.00000000 1 #  97: Au
 25.74000000  2.04000000  2.04000000 1 #  98: Au
 27.78000000  0.00000000  2.04000000 1 #  99: Au
 27.78000000  2.04000000  0.00000000 1 # 100: Au
 25.74000000  0.00000000  4.08000000 1 # 101: Au
 25.74000000  2.04000000  6.12000000 1 # 102: Au
 27.78000000  0.00000000  6.12000000 1 # 103: Au
 27.78000000  2.04000000  4.08000000 1 # 104: Au
 25.74000000  4.08000000  0.00000000 1 # 105: Au
 25.74000000  6.12000000  2.04000000 1 # 106: Au
 27.78000000  4.08000000  2.04000000 1 # 107: Au
 27.78000000  6.12000000  0.00000000 1 # 108: Au
 25.74000000  4.08000000  4.08000000 1 # 109: Au
 25.74000000  6.12000000  6.12000000 1 # 110: Au
 27.78000000  4.08000000  6.12000000 1 # 111: Au
 27.78000000  6.12000000  4.08000000 1 # 112: Au
 25.74000000  8.16000000  0.00000000 1 # 113: Au
 25.74000000 10.20000000  2.04000000 1 # 114: Au
 27.78000000  8.16000000  2.04000000 1 # 115: Au
 27.78000000 10.20000000  0.00000000 1 # 116: Au
 25.74000000  8.16000000  4.08000000 1 # 117: Au
 25.74000000 10.20000000  6.12000000 1 # 118: Au
 27.78000000  8.16000000  6.12000000 1 # 119: Au
 27.78000000 10.20000000  4.08000000 1 # 120: Au
 29.82000000  0.00000000  0.00000000 1 # 121: Au
 29.82000000  2.04000000  2.04000000 1 # 122: Au
 31.86000000  0.00000000  2.04000000 1 # 123: Au
 31.86000000  2.04000000  0.00000000 1 # 124: Au
 29.82000000  0.00000000  4.08000000 1 # 125: Au
 29.82000000  2.04000000  6.12000000 1 # 126: Au
 31.86000000  0.00000000  6.12000000 1 # 127: Au
 31.86000000  2.04000000  4.08000000 1 # 128: Au
 29.82000000  4.08000000  0.00000000 1 # 129: Au
 29.82000000  6.12000000  2.04000000 1 # 130: Au
 31.86000000  4.08000000  2.04000000 1 # 131: Au
 31.86000000  6.12000000  0.00000000 1 # 132: Au
 29.82000000  4.08000000  4.08000000 1 # 133: Au
 29.82000000  6.12000000  6.12000000 1 # 134: Au
 31.86000000  4.08000000  6.12000000 1 # 135: Au
 31.86000000  6.12000000  4.08000000 1 # 136: Au
 29.82000000  8.16000000  0.00000000 1 # 137: Au
 29.82000000 10.20000000  2.04000000 1 # 138: Au
 31.86000000  8.16000000  2.04000000 1 # 139: Au
 31.86000000 10.20000000  0.00000000 1 # 140: Au
 29.82000000  8.16000000  4.08000000 1 # 141: Au
 29.82000000 10.20000000  6.12000000 1 # 142: Au
 31.86000000  8.16000000  6.12000000 1 # 143: Au
 31.86000000 10.20000000  4.08000000 1 # 144: Au
%endblock AtomicCoordinatesAndAtomicSpecies

NumberOfSpecies 2
%block ChemicalSpeciesLabel
 1 79 Au
 2 6 C
%endblock ChemicalSpeciesLabel
