LatticeConstant 1.0 Ang
%block LatticeVectors
 8.16000000 0.00000000 0.00000000
 0.00000000 30.60000000 0.00000000
 0.00000000 0.00000000 18.36000000
%endblock LatticeVectors

NumberOfAtoms 48
AtomicCoordinatesFormat Ang
%block AtomicCoordinatesAndAtomicSpecies
  0.00000000  0.00000000  0.00000000 1 #  1: Au
  0.00000000  2.04000000  2.04000000 1 #  2: Au
  2.04000000  0.00000000  2.04000000 1 #  3: Au
  2.04000000  2.04000000  0.00000000 1 #  4: Au
  0.00000000  0.00000000  4.08000000 1 #  5: Au
  0.00000000  2.04000000  6.12000000 1 #  6: Au
  2.04000000  0.00000000  6.12000000 1 #  7: Au
  2.04000000  2.04000000  4.08000000 1 #  8: Au
  0.00000000  4.08000000  0.00000000 1 #  9: Au
  0.00000000  6.12000000  2.04000000 1 # 10: Au
  2.04000000  4.08000000  2.04000000 1 # 11: Au
  2.04000000  6.12000000  0.00000000 1 # 12: Au
  0.00000000  4.08000000  4.08000000 1 # 13: Au
  0.00000000  6.12000000  6.12000000 1 # 14: Au
  2.04000000  4.08000000  6.12000000 1 # 15: Au
  2.04000000  6.12000000  4.08000000 1 # 16: Au
  0.00000000  8.16000000  0.00000000 1 # 17: Au
  0.00000000 10.20000000  2.04000000 1 # 18: Au
  2.04000000  8.16000000  2.04000000 1 # 19: Au
  2.04000000 10.20000000  0.00000000 1 # 20: Au
  0.00000000  8.16000000  4.08000000 1 # 21: Au
  0.00000000 10.20000000  6.12000000 1 # 22: Au
  2.04000000  8.16000000  6.12000000 1 # 23: Au
  2.04000000 10.20000000  4.08000000 1 # 24: Au
  4.08000000  0.00000000  0.00000000 1 # 25: Au
  4.08000000  2.04000000  2.04000000 1 # 26: Au
  6.12000000  0.00000000  2.04000000 1 # 27: Au
  6.12000000  2.04000000  0.00000000 1 # 28: Au
  4.08000000  0.00000000  4.08000000 1 # 29: Au
  4.08000000  2.04000000  6.12000000 1 # 30: Au
  6.12000000  0.00000000  6.12000000 1 # 31: Au
  6.12000000  2.04000000  4.08000000 1 # 32: Au
  4.08000000  4.08000000  0.00000000 1 # 33: Au
  4.08000000  6.12000000  2.04000000 1 # 34: Au
  6.12000000  4.08000000  2.04000000 1 # 35: Au
  6.12000000  6.12000000  0.00000000 1 # 36: Au
  4.08000000  4.08000000  4.08000000 1 # 37: Au
  4.08000000  6.12000000  6.12000000 1 # 38: Au
  6.12000000  4.08000000  6.12000000 1 # 39: Au
  6.12000000  6.12000000  4.08000000 1 # 40: Au
  4.08000000  8.16000000  0.00000000 1 # 41: Au
  4.08000000 10.20000000  2.04000000 1 # 42: Au
  6.12000000  8.16000000  2.04000000 1 # 43: Au
  6.12000000 10.20000000  0.00000000 1 # 44: Au
  4.08000000  8.16000000  4.08000000 1 # 45: Au
  4.08000000 10.20000000  6.12000000 1 # 46: Au
  6.12000000  8.16000000  6.12000000 1 # 47: Au
  6.12000000 10.20000000  4.08000000 1 # 48: Au
%endblock AtomicCoordinatesAndAtomicSpecies

NumberOfSpecies 1
%block ChemicalSpeciesLabel
 1 79 Au
%endblock ChemicalSpeciesLabel
