LatticeConstant 1.0 Ang
%block LatticeVectors
 35.79474000 0.00000000 0.00000000
 0.00000000 30.60000000 0.00000000
 0.00000000 0.00000000 30.60000000
%endblock LatticeVectors

NumberOfAtoms 176
AtomicCoordinatesFormat Ang
%block AtomicCoordinatesAndAtomicSpecies
  0.00000000  0.00000000  0.00000000 1 #   1: Au
  0.00000000  2.04000000  2.04000000 1 #   2: Au
  2.04000000  0.00000000  2.04000000 1 #   3: Au
  2.04000000  2.04000000  0.00000000 1 #   4: Au
  0.00000000  0.00000000  4.08000000 1 #   5: Au
  0.00000000  2.04000000  6.12000000 1 #   6: Au
  2.04000000  0.00000000  6.12000000 1 #   7: Au
  2.04000000  2.04000000  4.08000000 1 #   8: Au
  0.00000000  0.00000000  8.16000000 1 #   9: Au
  0.00000000  2.04000000 10.20000000 1 #  10: Au
  2.04000000  0.00000000 10.20000000 1 #  11: Au
  2.04000000  2.04000000  8.16000000 1 #  12: Au
  0.00000000  4.08000000  0.00000000 1 #  13: Au
  0.00000000  6.12000000  2.04000000 1 #  14: Au
  2.04000000  4.08000000  2.04000000 1 #  15: Au
  2.04000000  6.12000000  0.00000000 1 #  16: Au
  0.00000000  4.08000000  4.08000000 1 #  17: Au
  0.00000000  6.12000000  6.12000000 1 #  18: Au
  2.04000000  4.08000000  6.12000000 1 #  19: Au
  2.04000000  6.12000000  4.08000000 1 #  20: Au
  0.00000000  4.08000000  8.16000000 1 #  21: Au
  0.00000000  6.12000000 10.20000000 1 #  22: Au
  2.04000000  4.08000000 10.20000000 1 #  23: Au
  2.04000000  6.12000000  8.16000000 1 #  24: Au
  0.00000000  8.16000000  0.00000000 1 #  25: Au
  0.00000000 10.20000000  2.04000000 1 #  26: Au
  2.04000000  8.16000000  2.04000000 1 #  27: Au
  2.04000000 10.20000000  0.00000000 1 #  28: Au
  0.00000000  8.16000000  4.08000000 1 #  29: Au
  0.00000000 10.20000000  6.12000000 1 #  30: Au
  2.04000000  8.16000000  6.12000000 1 #  31: Au
  2.04000000 10.20000000  4.08000000 1 #  32: Au
  0.00000000  8.16000000  8.16000000 1 #  33: Au
  0.00000000 10.20000000 10.20000000 1 #  34: Au
  2.04000000  8.16000000 10.20000000 1 #  35: Au
  2.04000000 10.20000000  8.16000000 1 #  36: Au
  4.08000000  0.00000000  0.00000000 1 #  37: Au
  4.08000000  2.04000000  2.04000000 1 #  38: Au
  6.12000000  0.00000000  2.04000000 1 #  39: Au
  6.12000000  2.04000000  0.00000000 1 #  40: Au
  4.08000000  0.00000000  4.08000000 1 #  41: Au
  4.08000000  2.04000000  6.12000000 1 #  42: Au
  6.12000000  0.00000000  6.12000000 1 #  43: Au
  6.12000000  2.04000000  4.08000000 1 #  44: Au
  4.08000000  0.00000000  8.16000000 1 #  45: Au
  4.08000000  2.04000000 10.20000000 1 #  46: Au
  6.12000000  0.00000000 10.20000000 1 #  47: Au
  6.12000000  2.04000000  8.16000000 1 #  48: Au
  4.08000000  4.08000000  0.00000000 1 #  49: Au
  4.08000000  6.12000000  2.04000000 1 #  50: Au
  6.12000000  4.08000000  2.04000000 1 #  51: Au
  6.12000000  6.12000000  0.00000000 1 #  52: Au
  4.08000000  4.08000000  4.08000000 1 #  53: Au
  4.08000000  6.12000000  6.12000000 1 #  54: Au
  6.12000000  4.08000000  6.12000000 1 #  55: Au
  6.12000000  6.12000000  4.08000000 1 #  56: Au
  4.08000000  4.08000000  8.16000000 1 #  57: Au
  4.08000000  6.12000000 10.20000000 1 #  58: Au
  6.12000000  4.08000000 10.20000000 1 #  59: Au
  6.12000000  6.12000000  8.16000000 1 #  60: Au
  4.08000000  8.16000000  0.00000000 1 #  61: Au
  4.08000000 10.20000000  2.04000000 1 #  62: Au
  6.12000000  8.16000000  2.04000000 1 #  63: Au
  6.12000000 10.20000000  0.00000000 1 #  64: Au
  4.08000000  8.16000000  4.08000000 1 #  65: Au
  4.08000000 10.20000000  6.12000000 1 #  66: Au
  6.12000000  8.16000000  6.12000000 1 #  67: Au
  6.12000000 10.20000000  4.08000000 1 #  68: Au
  4.08000000  8.16000000  8.16000000 1 #  69: Au
  4.08000000 10.20000000 10.20000000 1 #  70: Au
  6.12000000  8.16000000 10.20000000 1 #  71: Au
  6.12000000 10.20000000  8.16000000 1 #  72: Au
 15.36406000  3.54033000  6.70746000 2 #  73: N
 22.42128000  4.04463000  6.29057000 2 #  74: N
 18.17756000  3.57301000  6.75210000 3 #  75: C
 19.65869000  3.70043000  6.67246000 3 #  76: C
 13.95606000  3.72323000  6.52682000 3 #  77: C
 17.45722000  2.73113000  5.82264000 3 #  78: C
 17.44595000  4.25501000  7.71089000 3 #  79: C
 16.08092000  2.76165000  5.81577000 3 #  80: C
 16.00478000  4.05005000  7.85876000 3 #  81: C
 20.45185000  2.64110000  6.26138000 3 #  82: C
 20.30793000  4.94720000  7.01354000 3 #  83: C
 21.91116000  2.73200000  6.27401000 3 #  84: C
 21.66234000  5.07516000  6.80053000 3 #  85: C
 13.05565000  3.60852000  7.61187000 3 #  86: C
 13.44973000  4.02907000  5.24214000 3 #  87: C
 11.68085000  3.79412000  7.40871000 3 #  88: C
 12.07292000  4.19954000  5.03889000 3 #  89: C
 11.15858000  4.08472000  6.12000000 3 #  90: C
 17.98339000  2.12154000  5.07110000 4 #  91: H
 17.93710000  4.88239000  8.47402000 4 #  92: H
 15.47545000  2.19552000  5.08769000 4 #  93: H
 15.43551000  4.88951000  8.29946000 4 #  94: H
 20.01864000  1.65363000  6.02997000 4 #  95: H
 19.73165000  5.82151000  7.35475000 4 #  96: H
 22.44754000  2.08543000  5.55301000 4 #  97: H
 22.19769000  6.02543000  6.97067000 4 #  98: H
 13.44875000  3.33319000  8.60890000 4 #  99: H
 14.14791000  4.15889000  4.39511000 4 # 100: H
 10.98845000  3.69288000  8.26529000 4 # 101: H
 11.69698000  4.44690000  4.02864000 4 # 102: H
 22.59029000  1.74550000  7.94707000 5 # 103: Cl
 15.77782000  2.75979000  9.44033000 5 # 104: Cl
 27.63474000  0.00000000  0.00000000 1 # 105: Au
 27.63474000  2.04000000  2.04000000 1 # 106: Au
 29.67474000  0.00000000  2.04000000 1 # 107: Au
 29.67474000  2.04000000  0.00000000 1 # 108: Au
 27.63474000  0.00000000  4.08000000 1 # 109: Au
 27.63474000  2.04000000  6.12000000 1 # 110: Au
 29.67474000  0.00000000  6.12000000 1 # 111: Au
 29.67474000  2.04000000  4.08000000 1 # 112: Au
 27.63474000  0.00000000  8.16000000 1 # 113: Au
 27.63474000  2.04000000 10.20000000 1 # 114: Au
 29.67474000  0.00000000 10.20000000 1 # 115: Au
 29.67474000  2.04000000  8.16000000 1 # 116: Au
 27.63474000  4.08000000  0.00000000 1 # 117: Au
 27.63474000  6.12000000  2.04000000 1 # 118: Au
 29.67474000  4.08000000  2.04000000 1 # 119: Au
 29.67474000  6.12000000  0.00000000 1 # 120: Au
 27.63474000  4.08000000  4.08000000 1 # 121: Au
 27.63474000  6.12000000  6.12000000 1 # 122: Au
 29.67474000  4.08000000  6.12000000 1 # 123: Au
 29.67474000  6.12000000  4.08000000 1 # 124: Au
 27.63474000  4.08000000  8.16000000 1 # 125: Au
 27.63474000  6.12000000 10.20000000 1 # 126: Au
 29.67474000  4.08000000 10.20000000 1 # 127: Au
 29.67474000  6.12000000  8.16000000 1 # 128: Au
 27.63474000  8.16000000  0.00000000 1 # 129: Au
 27.63474000 10.20000000  2.04000000 1 # 130: Au
 29.67474000  8.16000000  2.04000000 1 # 131: Au
 29.67474000 10.20000000  0.00000000 1 # 132: Au
 27.63474000  8.16000000  4.08000000 1 # 133: Au
 27.63474000 10.20000000  6.12000000 1 # 134: Au
 29.67474000  8.16000000  6.12000000 1 # 135: Au
 29.67474000 10.20000000  4.08000000 1 # 136: Au
 27.63474000  8.16000000  8.16000000 1 # 137: Au
 27.63474000 10.20000000 10.20000000 1 # 138: Au
 29.67474000  8.16000000 10.20000000 1 # 139: Au
 29.67474000 10.20000000  8.16000000 1 # 140: Au
 31.71474000  0.00000000  0.00000000 1 # 141: Au
 31.71474000  2.04000000  2.04000000 1 # 142: Au
 33.75474000  0.00000000  2.04000000 1 # 143: Au
 33.75474000  2.04000000  0.00000000 1 # 144: Au
 31.71474000  0.00000000  4.08000000 1 # 145: Au
 31.71474000  2.04000000  6.12000000 1 # 146: Au
 33.75474000  0.00000000  6.12000000 1 # 147: Au
 33.75474000  2.04000000  4.08000000 1 # 148: Au
 31.71474000  0.00000000  8.16000000 1 # 149: Au
 31.71474000  2.04000000 10.20000000 1 # 150: Au
 33.75474000  0.00000000 10.20000000 1 # 151: Au
 33.75474000  2.04000000  8.16000000 1 # 152: Au
 31.71474000  4.08000000  0.00000000 1 # 153: Au
 31.71474000  6.12000000  2.04000000 1 # 154: Au
 33.75474000  4.08000000  2.04000000 1 # 155: Au
 33.75474000  6.12000000  0.00000000 1 # 156: Au
 31.71474000  4.08000000  4.08000000 1 # 157: Au
 31.71474000  6.12000000  6.12000000 1 # 158: Au
 33.75474000  4.08000000  6.12000000 1 # 159: Au
 33.75474000  6.12000000  4.08000000 1 # 160: Au
 31.71474000  4.08000000  8.16000000 1 # 161: Au
 31.71474000  6.12000000 10.20000000 1 # 162: Au
 33.75474000  4.08000000 10.20000000 1 # 163: Au
 33.75474000  6.12000000  8.16000000 1 # 164: Au
 31.71474000  8.16000000  0.00000000 1 # 165: Au
 31.71474000 10.20000000  2.04000000 1 # 166: Au
 33.75474000  8.16000000  2.04000000 1 # 167: Au
 33.75474000 10.20000000  0.00000000 1 # 168: Au
 31.71474000  8.16000000  4.08000000 1 # 169: Au
 31.71474000 10.20000000  6.12000000 1 # 170: Au
 33.75474000  8.16000000  6.12000000 1 # 171: Au
 33.75474000 10.20000000  4.08000000 1 # 172: Au
 31.71474000  8.16000000  8.16000000 1 # 173: Au
 31.71474000 10.20000000 10.20000000 1 # 174: Au
 33.75474000  8.16000000 10.20000000 1 # 175: Au
 33.75474000 10.20000000  8.16000000 1 # 176: Au
%endblock AtomicCoordinatesAndAtomicSpecies

NumberOfSpecies 5
%block ChemicalSpeciesLabel
 1 79 Au
 2 7 N
 3 6 C
 4 1 H
 5 17 Cl
%endblock ChemicalSpeciesLabel
